life3.in
15
3
000000000000000
000000000000000
010001011101110
010001010001000
010001011001100
010001010001000
011101010001110
000000000000000
000000000000000
000000000000000
000000000000000
000000000000000
000000000000000
000000000000000
000000000000000
