life3.out
111100011010100
010110010111000
010100001000101
010010111001100
000101101010111
100000100010000
001000000011100
011111101110001
101001111000011
000001010001110
100111000100001
010000001011000
001101000010011
000001011010000
010001000000010
--->
100100111010100
000010010010110
010101100000110
000110101000001
100010001010111
000001110010001
101010110000000
000010001010101
101000000011000
010100010000100
100011101100011
010001000011010
001010111010000
001001000100011
110010000001000
--->
110111111110111
001110001100001
001100100001101
001100100101000
100110001001000
010110001101000
100110001101011
100001010110001
111100000110110
011111111111110
111011111111011
110100000011110
011110111011111
101011111110001
111111111111110
--->
000000000000000
000000000000000
010001011101110
010001010001000
010001011001100
010001010001000
011101010001110
000000000000000
000000000000000
000000000000000
000000000000000
000000000000000
000000000000000
000000000000000
000000000000000