life3.in.cnf.out
c ---- [ banner ] ------------------------------------------------------------
c
c KISSAT SAT Solver
c Copyright (c) 2019-2020 Armin Biere JKU Linz
c 
c Version 1.0.3 baef4609163f542dc08f43aef02ce8da0581a2b5
c gcc (Ubuntu 7.5.0-3ubuntu1~18.04) 7.5.0 -W -Wall -O3 -DNEMBEDDED -DNDEBUG -DNMETRICS -DNSTATISTICS
c Fri Sep 11 16:34:13 CEST 2020 Linux dw-Precision-Tower-7910 5.0.0-36-generic x86_64
c
c ---- [ parsing ] -----------------------------------------------------------
c
c opened and reading DIMACS file:
c 
c   life3.in.cnf
c 
c parsed 'p cnf 900 128475' header
c closing input after reading 4322480 bytes (4 MB)
c finished parsing after 0.07 seconds
c
c ---- [ solving ] -----------------------------------------------------------
c
c  seconds reductions redundant irredundant
c         MB   restarts    trail      variables
c          level  conflicts   glue        remaining
c
c *  0.07 11 0  0  0   0   0 0% 0 128250 675 75%
c {  0.07 11 0  0  0   0   0 0% 0 128250 675 75%
c -  0.09 13 119  1  1 301 175 40% 9 105060 675 75%
c -  0.11 13 63  2 64 901 468 26% 8 105060 675 75%
c }  0.11 13 61  2 64 1003 549 26% 8 105060 675 75%
c [  0.11 13 0  2 64 1003 549 0% 0 105060 675 75%
c O  0.12 13 118  2 64 1004 550 26% 3 105060 675 75%
c -  0.14 13 160  3 64 1804 658 48% 22 105060 675 75%
c ]  0.15 13 162  3 65 2248 1040 48% 21 105060 675 75%
c {  0.15 13 61  3 65 2248 1040 26% 8 105060 675 75%
c u  0.18 13 66  3 101 2503 1088 26% 9 105060 675 75%
c v  0.19 13 66  3 101 2503 1072 26% 9 105060 675 75%
c -  0.21 13 60  4 117 3004 724 24% 9 105060 675 75%
c I  0.21 13 60  4 117 3005 725 24% 9 105060 675 75%
c }  0.23 13 54  4 173 4248 1802 23% 9 105060 675 75%
c [  0.23 13 162  4 173 4248 1802 48% 21 105060 675 75%
c -  0.24 13 139  5 173 4504 1192 42% 20 105060 675 75%
c B  0.27 14 96  5 174 6007 2521 45% 14 105060 675 75%
c -  0.28 14 97  6 174 6304 1550 44% 15 105060 675 75%
c ]  0.29 14 96  6 175 6910 2097 41% 15 105060 675 75%
c
c  seconds  reductions   redundant  irredundant
c         MB    restarts        trail      variables
c          level    conflicts      glue        remaining
c
c {  0.29 14 54  6 175 6910 2097 23% 9 105060 675 75%
c u  0.32 14 54  6 205 7505 2437 23% 9 105060 675 75%
c v  0.33 14 54  6 205 7505 2402 23% 9 105060 675 75%
c -  0.36 14 50  7 305 8405 1728 22% 9 105060 675 75%
c W  0.41 14 48  7 368 10008 3111 23% 9 105060 675 75%
c -  0.42 14 48  8 433 10805 2283 22% 9 105060 675 75%
c }  0.45 14 49  8 516 11912 3252 23% 9 105060 675 75%
c [  0.45 14 96  8 516 11912 3252 41% 15 105060 675 75%
c s  1.16 15 92  8 516 12501 3765 42% 14 105018 675 75%
c -  1.24 15 95  9 517 13505 2643 42% 17 105018 675 75%
c u  1.30 15 102  9 518 15005 3862 47% 18 105018 675 75%
c v  1.31 15 102  9 518 15005 3817 47% 18 105018 675 75%
c O  1.32 15 102  9 518 15011 3823 47% 18 105018 675 75%
c -  1.34 15 93 10 519 16507 2430 45% 17 105018 675 75%
c ]  1.40 15 89 10 521 19223 4864 44% 17 105018 675 75%
c {  1.40 15 49 10 521 19223 4864 23% 9 105018 675 75%
c -  1.41 15 51 11 547 19809 2591 25% 9 105018 675 75%
c B  1.44 15 52 11 654 21016 3684 25% 9 105018 675 75%
c -  1.52 16 57 12 900 23409 3402 27% 9 105018 675 75%
c u  1.60 16 59 12 1056 25005 4701 28% 9 105018 675 75%
c
c  seconds  reductions     redundant  irredundant
c         MB     restarts         trail      variables
c          level      conflicts      glue        remaining
c
c v  1.60 16 59 12 1056 25005 4681 28% 9 105018 675 75%
c -  1.66 16 58 13 1168 27309 4187 27% 9 105018 675 75%
c W  1.70 15 57 13 1219 28018 4809 27% 9 105018 675 75%
c }  1.72 15 56 13 1258 29224 5853 27% 9 105018 675 75%
c [  1.72 15 89 13 1258 29224 5853 44% 17 105018 675 75%
c -  1.77 15 86 14 1260 31509 4465 45% 17 105018 675 75%
c -  1.88 16 88 15 1263 36010 4156 53% 19 105018 675 75%
c I  1.88 16 88 15 1263 36019 4164 53% 19 105018 675 75%
c s  1.93 16 88 15 1263 37503 5524 53% 19 105010 675 75%
c ^  1.94 16 88 15 1263 37503 5524 53% 19 105010 675 75%
c u  1.97 16 88 15 1263 37507 5397 53% 19 105010 675 75%
c v  1.97 16 88 15 1263 37507 5351 53% 19 105010 675 75%
c -  2.05 16 96 16 1264 40812 4095 53% 20 105010 675 75%
c B  2.14 16 103 16 1267 45020 7802 54% 19 105010 675 75%
c -  2.16 16 106 17 1267 45919 4630 54% 19 105010 675 75%
c ]  2.22 16 112 17 1269 47806 6373 56% 19 105010 675 75%
c {  2.22 16 56 17 1269 47806 6373 27% 9 105010 675 75%
c -  2.29 16 54 18 1404 51319 5568 26% 9 105010 675 75%
c u  2.34 16 54 18 1436 52510 6482 26% 9 105010 675 75%
c v  2.35 16 54 18 1436 52510 6422 26% 9 105010 675 75%
c
c  seconds  reductions     redundant  irredundant
c         MB     restarts         trail      variables
c          level      conflicts      glue        remaining
c
c W  2.43 16 53 18 1554 55022 8622 26% 9 105010 675 75%
c -  2.48 16 53 19 1671 57019 6455 26% 9 105010 675 75%
c -  2.62 16 53 20 1931 63019 7768 27% 8 105010 675 75%
c }  2.71 17 52 20 2029 64806 9364 27% 9 105010 675 75%
c [  2.71 17 112 20 2029 64806 9364 56% 19 105010 675 75%
c #  2.78 17 109 20 2030 66023 10469 55% 19 105010 675 75%
c -  2.92 17 104 21 2031 69319 8234 54% 18 105010 675 75%
c u  3.00 17 103 21 2032 70011 8673 54% 17 105010 675 75%
c v  3.01 17 103 21 2032 70011 8625 54% 17 105010 675 75%
c s  3.36 17 107 21 2035 75004 13120 54% 19 104997 675 75%
c ^  3.50 17 107 21 2035 75004 13120 54% 19 104997 675 75%
c -  3.57 17 108 22 2035 75919 7441 54% 20 104997 675 75%
c B  3.70 15 109 22 2035 78025 9368 55% 20 104997 675 75%
c -  3.99 16 116 23 2039 82819 7308 57% 20 104997 675 75%
c ]  4.27 16 120 23 2042 87632 11781 59% 21 104997 675 75%
c {  4.27 16 52 23 2042 87632 11781 27% 9 104997 675 75%
c u  4.43 17 53 23 2179 90011 13751 27% 9 104997 675 75%
c v  4.44 17 53 23 2179 90011 13687 27% 9 104997 675 75%
c -  4.57 17 53 24 2179 90020 7843 27% 9 104997 675 75%
c W  4.66 13 53 24 2234 91027 8744 27% 9 104997 675 75%
c
c  seconds  reductions     redundant  irredundant
c         MB     restarts         trail      variables
c          level      conflicts      glue        remaining
c
c -  5.04 17 55 25 2945 97520 9136 27% 9 104997 675 75%
c F  5.52 17 57 25 3743 105029 15997 27% 9 104997 675 75%
c -  5.54 17 57 26 3768 105320 10189 27% 9 104997 675 75%
c u  5.90 17 55 26 4053 112511 16460 28% 9 104997 675 75%
c v  5.92 17 55 26 4053 112511 16431 28% 9 104997 675 75%
c -  6.09 14 55 27 4088 113421 11304 28% 9 104997 675 75%
c }  6.10 15 55 27 4094 113632 11480 28% 9 104997 675 75%
c [  6.10 15 120 27 4094 113632 11480 59% 21 104997 675 75%
c B  6.34 16 110 27 4098 120029 17026 57% 20 104997 675 75%
c -  6.46 16 113 28 4099 121821 11026 58% 20 104997 675 75%
c s  6.67 16 119 28 4100 125004 13955 60% 20 104989 675 75%
c ^  6.80 17 119 28 4100 125004 13955 60% 20 104989 675 75%
c -  7.14 18 123 29 4103 130521 9667 59% 24 104989 675 75%
c W  7.47 18 125 29 4107 136030 14677 58% 24 104989 675 75%
c u  7.58 18 124 29 4107 137512 15807 58% 24 104989 675 75%
c v  7.60 18 124 29 4107 137512 15755 58% 24 104989 675 75%
c -  7.80 18 123 30 4107 139523 9123 57% 24 104989 675 75%
c ]  8.05 16 121 30 4108 143845 13075 57% 24 104989 675 75%
c 1  8.05 16 55 30 4108 143845 13075 28% 9 104989 675 75%
c
c ---- [ result ] ------------------------------------------------------------
c
s SATISFIABLE
v 1 2 3 4 -5 -6 -7 8 9 -10 11 -12 13 -14 -15 -16 17 -18 19 20 -21 -22 23 -24
v 25 26 27 -28 -29 -30 -31 32 -33 34 -35 -36 -37 -38 39 -40 -41 -42 43 -44 45
v -46 47 -48 -49 50 -51 52 53 54 -55 -56 57 58 -59 -60 -61 -62 -63 64 -65 66
v 67 -68 69 -70 71 -72 73 74 75 76 -77 -78 -79 -80 -81 82 -83 -84 -85 86 -87
v -88 -89 -90 -91 -92 93 -94 -95 -96 -97 -98 -99 -100 101 102 103 -104 -105
v -106 107 108 109 110 111 112 -113 114 115 116 -117 -118 -119 120 121 -122
v 123 -124 -125 126 127 128 129 -130 -131 -132 -133 134 135 -136 -137 -138
v -139 -140 141 -142 143 -144 -145 -146 147 148 149 -150 151 -152 -153 154 155
v 156 -157 -158 -159 160 -161 -162 -163 -164 165 -166 167 -168 -169 -170 -171
v -172 -173 174 -175 176 177 -178 -179 -180 -181 -182 183 184 -185 186 -187
v -188 -189 -190 191 -192 -193 194 195 -196 -197 -198 -199 -200 201 -202 203
v 204 -205 206 -207 -208 -209 -210 -211 212 -213 -214 -215 216 -217 -218 -219
v -220 -221 -222 -223 224 -225 226 -227 -228 229 -230 -231 232 233 234 -235
v 236 -237 238 -239 -240 -241 -242 -243 -244 245 -246 -247 248 -249 -250 251
v -252 253 254 -255 -256 257 -258 259 -260 261 262 -263 -264 -265 -266 -267
v 268 269 -270 -271 -272 -273 274 275 -276 277 -278 279 -280 -281 -282 -283
v -284 285 286 -287 -288 -289 290 -291 -292 -293 294 -295 296 -297 298 299 300
v -301 -302 -303 -304 -305 306 307 308 -309 -310 311 -312 -313 -314 315 316
v -317 318 -319 320 -321 322 323 -324 -325 -326 -327 -328 -329 -330 -331 -332
v -333 -334 335 -336 -337 -338 339 -340 341 -342 343 -344 345 346 -347 348
v -349 -350 -351 -352 -353 -354 -355 356 357 -358 -359 -360 -361 362 -363 364
v -365 -366 -367 368 -369 -370 -371 -372 373 -374 -375 376 -377 -378 -379 380
v 381 382 -383 384 385 -386 -387 -388 389 390 -391 392 -393 -394 -395 396 -397
v -398 -399 -400 401 402 -403 404 -405 -406 -407 408 -409 410 -411 412 413 414
v -415 416 -417 -418 -419 -420 -421 -422 423 -424 -425 426 -427 -428 -429 430
v -431 -432 -433 434 435 436 437 -438 -439 440 -441 -442 -443 -444 -445 -446
v 447 -448 -449 -450 451 452 -453 454 455 456 457 458 459 460 461 -462 463 464
v 465 -466 -467 468 469 470 -471 -472 -473 474 475 -476 -477 -478 -479 480
v -481 -482 483 484 -485 -486 487 -488 -489 -490 -491 492 493 -494 495 -496
v -497 498 499 -500 -501 502 -503 -504 505 -506 507 -508 -509 -510 511 -512
v -513 514 515 -516 -517 -518 519 -520 -521 522 -523 -524 -525 -526 527 -528
v 529 530 -531 -532 -533 534 535 -536 537 -538 -539 -540 541 -542 -543 544 545
v -546 -547 -548 549 550 -551 552 -553 554 555 556 -557 -558 -559 -560 561
v -562 563 -564 565 566 -567 -568 -569 570 571 572 573 574 -575 -576 -577 -578
v -579 580 581 -582 583 584 -585 -586 587 588 589 590 591 592 593 594 595 596
v 597 598 599 -600 601 602 603 -604 605 606 607 608 609 610 611 612 -613 614
v 615 616 617 -618 619 -620 -621 -622 -623 -624 -625 626 627 628 629 -630 -631
v 632 633 634 635 -636 637 638 639 -640 641 642 643 644 645 646 -647 648 -649
v 650 651 652 653 654 655 656 -657 -658 -659 660 661 662 663 664 665 666 667
v 668 669 670 671 672 673 674 -675 -676 -677 -678 -679 -680 -681 -682 -683
v -684 -685 -686 -687 -688 -689 -690 -691 -692 -693 -694 -695 -696 -697 -698
v -699 -700 -701 -702 -703 -704 -705 -706 707 -708 -709 -710 711 -712 713 714
v 715 -716 717 718 719 -720 -721 722 -723 -724 -725 726 -727 728 -729 -730
v -731 732 -733 -734 -735 -736 737 -738 -739 -740 741 -742 743 744 -745 -746
v 747 748 -749 -750 -751 752 -753 -754 -755 756 -757 758 -759 -760 -761 762
v -763 -764 -765 -766 767 768 769 -770 771 -772 773 -774 -775 -776 777 778 779
v -780 -781 -782 -783 -784 -785 -786 -787 -788 -789 -790 -791 -792 -793 -794
v -795 -796 -797 -798 -799 -800 -801 -802 -803 -804 -805 -806 -807 -808 -809
v -810 -811 -812 -813 -814 -815 -816 -817 -818 -819 -820 -821 -822 -823 -824
v -825 -826 -827 -828 -829 -830 -831 -832 -833 -834 -835 -836 -837 -838 -839
v -840 -841 -842 -843 -844 -845 -846 -847 -848 -849 -850 -851 -852 -853 -854
v -855 -856 -857 -858 -859 -860 -861 -862 -863 -864 -865 -866 -867 -868 -869
v -870 -871 -872 -873 -874 -875 -876 -877 -878 -879 -880 -881 -882 -883 -884
v -885 -886 -887 -888 -889 -890 -891 -892 -893 -894 -895 -896 -897 -898 -899
v -900 0
c
c ---- [ profiling ] ---------------------------------------------------------
c
c           5.75   71.36 %  search
c           3.45   42.87 %  stable
c           2.29   28.49 %  focused
c           2.24   27.76 %  simplify
c           1.12   13.97 %  eliminate
c           0.90   11.21 %  probe
c           0.61    7.63 %  vivify
c           0.25    3.17 %  substitute
c           0.15    1.87 %  walking
c           0.09    1.13 %  reduce
c           0.07    0.88 %  parse
c           0.06    0.70 %  autarky
c           0.02    0.25 %  transitive
c           0.01    0.09 %  failed
c =============================================
c           8.05  100.00 %  total
c
c ---- [ statistics ] --------------------------------------------------------
c
c conflicts:                           143845            17859.75 per second
c decisions:                           448328                3.12 per conflict
c propagations:                       2606289           323596    per second
c reductions:                              30             4795    interval
c rephased:                                16             8990    interval
c restarts:                              4108               35.02 interval
c
c ---- [ resources ] ---------------------------------------------------------
c
c maximum-resident-set-size:         19243008 bytes         18 MB
c process-time:                             8s               8.05 seconds
c
c ---- [ shutting down ] -----------------------------------------------------
c
c exit 10
